pymatgen 4.7.6+ generated KPOINTS with grid density = 671 / atom
0
Gamma
5 2 1
