B16 S24
1.0
4.543074 0.000000 -0.166072
0.000000 10.806793 0.000000
0.000000 0.000000 19.275921
B S
16 24
direct
0.744791 0.313634 0.098813 B
0.579337 0.966191 0.681393 B
0.744791 0.186366 0.598813 B
0.420663 0.466191 0.818607 B
0.420663 0.033809 0.318607 B
0.255209 0.813634 0.401187 B
0.458648 0.781387 0.258631 B
0.541352 0.281387 0.241369 B
0.579337 0.533809 0.181393 B
0.541352 0.218613 0.741369 B
0.052644 0.901012 0.989660 B
0.947356 0.401012 0.510340 B
0.947356 0.098988 0.010340 B
0.052644 0.598988 0.489660 B
0.255209 0.686366 0.901187 B
0.458648 0.718613 0.758631 B
0.321602 0.702547 0.333388 S
0.436959 0.202944 0.321051 S
0.118907 0.763664 0.485187 S
0.321602 0.797453 0.833388 S
0.118907 0.736336 0.985187 S
0.301315 0.520006 0.902352 S
0.881093 0.263664 0.014813 S
0.487849 0.054149 0.756639 S
0.698685 0.479994 0.097648 S
0.487849 0.445851 0.256639 S
0.301315 0.979994 0.402352 S
0.678398 0.297453 0.666612 S
0.563041 0.797056 0.678949 S
0.512151 0.945851 0.243361 S
0.088887 0.031321 0.930339 S
0.911113 0.531321 0.569661 S
0.911113 0.968679 0.069661 S
0.563041 0.702944 0.178949 S
0.088887 0.468679 0.430339 S
0.436959 0.297056 0.821051 S
0.881093 0.236336 0.514813 S
0.698685 0.020006 0.597648 S
0.678398 0.202547 0.166612 S
0.512151 0.554149 0.743361 S
