pymatgen 4.7.6+ generated KPOINTS with grid density = 348 / atom
0
Gamma
3 3 5
