Sn2 I4
1.0
7.630706 0.000000 0.000000
0.000000 7.630706 0.000000
0.000000 0.000000 4.695760
Sn I
2 4
direct
0.000000 0.000000 0.000000 Sn
0.500000 0.500000 0.500000 Sn
0.298521 0.298521 0.000000 I
0.701479 0.701479 0.000000 I
0.201479 0.798521 0.500000 I
0.798521 0.201479 0.500000 I
