B12 S18
1.0
5.456572 0.000000 0.000000
-2.728286 4.725530 0.000000
0.000000 0.000000 23.286353
B S
12 18
direct
0.000000 0.000000 0.583588 B
0.333333 0.666667 0.583079 B
0.666667 0.333333 0.416921 B
0.000000 0.000000 0.416412 B
0.666667 0.333333 0.916921 B
0.000000 0.000000 0.916412 B
0.333333 0.666667 0.750255 B
0.666667 0.333333 0.749745 B
0.333333 0.666667 0.250255 B
0.666667 0.333333 0.249745 B
0.000000 0.000000 0.083588 B
0.333333 0.666667 0.083079 B
0.335001 0.333333 0.583333 S
0.666667 0.001668 0.583333 S
0.998332 0.664999 0.583333 S
0.001668 0.335001 0.416667 S
0.333333 0.998332 0.416667 S
0.664999 0.666667 0.416667 S
0.001668 0.666667 0.916667 S
0.333333 0.335001 0.916667 S
0.664999 0.998332 0.916667 S
0.668335 0.668335 0.750000 S
0.000000 0.331665 0.750000 S
0.331665 0.000000 0.750000 S
0.668335 0.000000 0.250000 S
0.000000 0.668335 0.250000 S
0.331665 0.331665 0.250000 S
0.335001 0.001668 0.083333 S
0.666667 0.664999 0.083333 S
0.998332 0.333333 0.083333 S
