pymatgen 4.7.6+ generated KPOINTS with grid density = 1469 / atom
0
Monkhorst
2 2 8
