Co8 O16
1.0
9.496972 0.000000 0.000000
0.000000 9.496972 0.000000
0.000000 0.000000 2.874827
Co O
8 16
direct
0.849728 0.334068 0.500000 Co
0.834068 0.650272 0.000000 Co
0.165932 0.349728 0.000000 Co
0.150272 0.665932 0.500000 Co
0.349728 0.834068 0.000000 Co
0.334068 0.150272 0.500000 Co
0.665932 0.849728 0.500000 Co
0.650272 0.165932 0.000000 Co
0.164637 0.540917 0.000000 O
0.040917 0.335363 0.500000 O
0.959083 0.664637 0.500000 O
0.835363 0.459083 0.000000 O
0.845674 0.203124 0.000000 O
0.703124 0.654326 0.500000 O
0.154326 0.796876 0.000000 O
0.296876 0.345674 0.500000 O
0.664637 0.040917 0.500000 O
0.540917 0.835363 0.000000 O
0.459083 0.164637 0.000000 O
0.335363 0.959083 0.500000 O
0.345674 0.703124 0.500000 O
0.203124 0.154326 0.000000 O
0.654326 0.296876 0.500000 O
0.796876 0.845674 0.000000 O
