pymatgen 4.7.6+ generated KPOINTS with grid density = 655 / atom
0
Monkhorst
4 4 4
